3 
4  21 46 
5  05 15 23 31 39 46 53 
6  00 07 15 25 33 40 48 55 
7  03 10 18 25 33 40 48 55 
8  03 10 18 25 33 40 48 55 
9  03 10 18 25 33 40 48 55 
10  03 10 18 25 33 40 48 55 
11  03 10 18 25 33 40 48 55 
12  03 10 18 25 33 40 48 55 
13  03 10 18 25 33 40 48 55 
14  03 10 18 25 33 40 48 55 
15  03 10 18 25 33 40 48 55 
16  03 10 18 25 33 40 48 55 
17  03 10 18 25 33 40 48 55 
18  03 10 18 25 33 40 48 55 
19  03 10 18 25 33 42 57 
20  12 27 40 55 
21  10 25 40 55 
22  10 25 40 57 
23 
0 
